54903
46, 39, 16, 45, 11, 25, 31, 27, 1, 33, 42, 12, 18, 4, 30, 47, 26, 49, 48, 17, 19, 44, 38, 8, 32, 41, 13, 5, 35, 24, 50, 20, 7, 37, 51, 40, 43, 3, 6, 28, 55, 54, 34, 53, 23, 21, 29, 22, 10, 9, 14, 2, 52, 15, 36
